
******************************************************************************
This program contains Ipopt, a library for large-scale nonlinear optimization.
 Ipopt is released as open source code under the Eclipse Public License (EPL).
         For more information visit http://projects.coin-or.org/Ipopt
******************************************************************************

This is Ipopt version 3.13.2, running with linear solver mumps.
NOTE: Other linear solvers might be more efficient (see Ipopt documentation).

Number of nonzeros in equality constraint Jacobian...:       49
Number of nonzeros in inequality constraint Jacobian.:       36
Number of nonzeros in Lagrangian Hessian.............:        0

Total number of variables............................:       21
                     variables with only lower bounds:        0
                variables with lower and upper bounds:       12
                     variables with only upper bounds:        0
Total number of equality constraints.................:       19
Total number of inequality constraints...............:       18
        inequality constraints with only lower bounds:        9
   inequality constraints with lower and upper bounds:        0
        inequality constraints with only upper bounds:        9

iter    objective    inf_pr   inf_du lg(mu)  ||d||  lg(rg) alpha_du alpha_pr  ls
   0  8.2499992e+01 1.00e+00 1.37e+01  -1.0 0.00e+00    -  0.00e+00 0.00e+00   0
   1  5.6472116e+02 2.22e-16 1.02e+02  -1.0 1.24e+00    -  9.53e-03 1.00e+00h  1
   2  4.3197601e+02 2.22e-16 9.92e+01  -1.0 2.21e+01    -  8.50e-02 2.23e-02f  1
   3  3.4005502e+02 4.44e-16 8.72e+01  -1.0 7.46e+00    -  2.24e-01 1.02e-01f  1
   4  3.3966042e+02 4.44e-16 8.71e+01  -1.0 8.92e-02    -  1.00e+00 4.24e-02f  2
   5  3.3983167e+02 8.88e-16 1.00e-06  -1.0 7.41e-04    -  1.00e+00 1.00e+00f  1
   6  3.3901503e+02 8.88e-16 2.83e-08  -2.5 4.75e-03    -  1.00e+00 1.00e+00f  1
   7  3.3900122e+02 1.11e-16 1.50e-09  -3.8 7.20e-05    -  1.00e+00 1.00e+00f  1
   8  3.3900001e+02 4.44e-16 1.84e-11  -5.7 7.06e-06    -  1.00e+00 1.00e+00f  1
   9  3.3900000e+02 2.22e-16 2.51e-14  -8.6 8.80e-08    -  1.00e+00 1.00e+00f  1

Number of Iterations....: 9

                                   (scaled)                 (unscaled)
Objective...............:   8.2682925809889127e+01    3.3899999582054539e+02
Dual infeasibility......:   2.5059035640133008e-14    1.0274204612454532e-13
Constraint violation....:   2.2204460492503131e-16    2.2204460492503131e-16
Complementarity.........:   2.5067164702425174e-09    1.0277537527994321e-08
Overall NLP error.......:   2.5067164702425174e-09    1.0277537527994321e-08


Number of objective function evaluations             = 12
Number of objective gradient evaluations             = 10
Number of equality constraint evaluations            = 12
Number of inequality constraint evaluations          = 12
Number of equality constraint Jacobian evaluations   = 1
Number of inequality constraint Jacobian evaluations = 1
Number of Lagrangian Hessian evaluations             = 1
Total CPU secs in IPOPT (w/o function evaluations)   =      0.231
Total CPU secs in NLP function evaluations           =      0.206

EXIT: Optimal Solution Found.
This is Ipopt version 3.13.2, running with linear solver mumps.
NOTE: Other linear solvers might be more efficient (see Ipopt documentation).

Number of nonzeros in equality constraint Jacobian...:      223
Number of nonzeros in inequality constraint Jacobian.:       72
Number of nonzeros in Lagrangian Hessian.............:      396

Total number of variables............................:       60
                     variables with only lower bounds:        0
                variables with lower and upper bounds:       51
                     variables with only upper bounds:        0
Total number of equality constraints.................:       55
Total number of inequality constraints...............:       36
        inequality constraints with only lower bounds:        9
   inequality constraints with lower and upper bounds:        0
        inequality constraints with only upper bounds:       27

iter    objective    inf_pr   inf_du lg(mu)  ||d||  lg(rg) alpha_du alpha_pr  ls
   0  8.2499992e+01 1.00e+00 8.64e+00  -1.0 0.00e+00    -  0.00e+00 0.00e+00   0
   1  5.8420936e+02 1.96e-02 1.00e+02  -1.0 1.21e+00    -  9.72e-03 1.00e+00H  1
   2  4.4350881e+02 3.98e-02 9.12e+01  -1.0 1.48e+01    -  2.66e-01 8.55e-02f  1
   3  4.1112899e+02 4.00e-02 8.22e+01  -1.0 1.20e+01    -  4.02e-01 8.21e-02f  1
   4  3.4831821e+02 4.31e-02 5.76e+01  -1.0 9.99e+00    -  8.02e-01 2.37e-01f  1
   5  3.4821767e+02 2.71e-02 4.69e+01  -1.0 7.59e-01    -  1.00e+00 3.71e-01h  1
   6  3.4960762e+02 3.91e-04 7.32e-01  -1.0 4.04e-01    -  1.00e+00 1.00e+00f  1
   7  3.4856807e+02 1.52e-03 4.30e-02  -1.7 2.67e-02    -  1.00e+00 1.00e+00f  1
   8  3.4778159e+02 5.65e-03 2.98e-02  -2.5 1.23e-01    -  9.98e-01 1.00e+00f  1
   9  3.4772450e+02 3.59e-04 1.54e-03  -2.5 8.07e-02    -  1.00e+00 1.00e+00h  1
iter    objective    inf_pr   inf_du lg(mu)  ||d||  lg(rg) alpha_du alpha_pr  ls
  10  3.4771222e+02 1.93e-04 9.81e-01  -3.8 1.70e-02    -  8.73e-01 4.77e-01h  1
  11  3.4769847e+02 1.04e-04 6.08e-04  -3.8 3.47e-02    -  1.00e+00 1.00e+00f  1
  12  3.4769720e+02 1.13e-05 9.66e-03  -5.7 8.54e-03    -  9.13e-01 9.70e-01h  1
  13  3.4769721e+02 1.07e-07 1.02e-06  -5.7 1.23e-03    -  1.00e+00 1.00e+00h  1
  14  3.4769719e+02 1.44e-10 3.24e-09  -8.6 5.56e-05    -  1.00e+00 1.00e+00h  1

Number of Iterations....: 14

                                   (scaled)                 (unscaled)
Objective...............:   8.4804191778131056e+01    3.4769718629033730e+02
Dual infeasibility......:   3.2351053631001538e-09    1.3263931988710629e-08
Constraint violation....:   1.4365758929657524e-10    1.4365758929657524e-10
Complementarity.........:   6.5916258923251232e-09    2.7025666158533002e-08
Overall NLP error.......:   6.5916258923251232e-09    2.7025666158533002e-08


Number of objective function evaluations             = 16
Number of objective gradient evaluations             = 15
Number of equality constraint evaluations            = 16
Number of inequality constraint evaluations          = 16
Number of equality constraint Jacobian evaluations   = 15
Number of inequality constraint Jacobian evaluations = 15
Number of Lagrangian Hessian evaluations             = 14
Total CPU secs in IPOPT (w/o function evaluations)   =      1.010
Total CPU secs in NLP function evaluations           =      2.069

EXIT: Optimal Solution Found.
cases/matpower/case9.m
ipopt
ACP
Time to Solution........:3.141427993774414
